c instance by G2
c solution = 110101010101110011001
c Known solution cost is 1037 
p cnf 21 30
w 42 45 22 11 87 59 31 73 92 2 64 78 62 59 8 5 69 38 84 71 35
-19 -20 1 0
17 -13 15 0
3 2 -12 0
-19 11 -13 0
8 21 -14 0
5 9 -16 0
5 10 -18 0
6 4 21 0
-3 4 -6 0
16 5 8 0
-21 -2 -15 0
1 -18 16 0
9 -2 12 0
-13 9 6 0
10 6 -20 0
6 15 16 0
21 19 -10 0
15 4 -6 0
-9 -18 -4 0
-6 -11 19 0
-7 5 9 0
-1 -10 18 0
1 -9 -7 0
-14 -8 -20 0
15 11 -3 0
5 -2 14 0
-14 3 13 0
15 9 -5 0
-13 -16 -15 0
-19 -16 9 0
